mixintcount/benchmarks/random_v2l/7_7_630.smt2
(set-logic QF_LIA)
(set-info :ran/ran2.smt2)
(set-info :smt-lib-version 2.0)
(declare-fun x1 () Int)
(declare-fun x2 () Int)
(declare-fun x3 () Int)
(declare-fun x4 () Int)
(declare-fun x5 () Int)
(declare-fun x6 () Int)
(declare-fun x7 () Int)
(assert (<= (+ (* (- 5) x1) (* 7 x2) (* 1 x3) (* 6 x4) (* 9 x5) (* (- 10) x6) (* (- 6) x7) ) (- 219)))
(assert (<= (+ (* (- 5) x1) (* 0 x2) (* 3 x3) (* (- 7) x4) (* (- 10) x5) (* 9 x6) (* (- 8) x7) ) 158))
(assert (<= (+ (* (- 8) x1) (* (- 4) x2) (* 5 x3) (* (- 2) x4) (* 2 x5) (* 2 x6) (* 0 x7) ) (- 424)))
(assert (<= (+ (* 5 x1) (* 10 x2) (* (- 4) x3) (* (- 9) x4) (* (- 8) x5) (* (- 2) x6) (* (- 8) x7) ) 393))
(assert (<= (+ (* (- 6) x1) (* 2 x2) (* (- 10) x3) (* (- 8) x4) (* 2 x5) (* (- 5) x6) (* (- 6) x7) ) (- 15)))
(assert (<= (+ (* 5 x1) (* 7 x2) (* 8 x3) (* 6 x4) (* 5 x5) (* 10 x6) (* 3 x7) ) (- 571)))
(assert (<= (+ (* (- 5) x1) (* (- 5) x2) (* (- 8) x3) (* 5 x4) (* 5 x5) (* 0 x6) (* (- 2) x7) ) (- 95)))
(assert (<= (+ (* (- 1) x1) (* 4 x2) (* (- 1) x3) (* 1 x4) (* (- 9) x5) (* (- 1) x6) (* 7 x7) ) (- 332)))
(assert (<= (+ (* 9 x1) (* 7 x2) (* (- 4) x3) (* 0 x4) (* (- 9) x5) (* 0 x6) (* (- 5) x7) ) (- 38)))
(assert (<= (+ (* (- 6) x1) (* (- 8) x2) (* (- 2) x3) (* 9 x4) (* (- 10) x5) (* (- 10) x6) (* 3 x7) ) 429))
(assert (<= (+ (* (- 7) x1) (* 3 x2) (* 7 x3) (* 9 x4) (* (- 7) x5) (* (- 6) x6) (* (- 5) x7) ) 62))
(assert (<= (+ (* 9 x1) (* 2 x2) (* 10 x3) (* 10 x4) (* (- 9) x5) (* 6 x6) (* (- 7) x7) ) 339))
(assert (<= (+ (* 2 x1) (* (- 2) x2) (* (- 2) x3) (* 2 x4) (* 6 x5) (* 3 x6) (* (- 4) x7) ) (- 620)))
(assert (<= (+ (* 3 x1) (* 2 x2) (* 7 x3) (* 1 x4) (* 0 x5) (* (- 2) x6) (* 3 x7) ) (- 105)))
(assert (<= (+ (* 1 x1) (* 0 x2) (* 0 x3) (* 0 x4) (* 0 x5) (* 0 x6) (* 0 x7) ) 630))
(assert (<= (+ (* (- 1) x1) (* 0 x2) (* 0 x3) (* 0 x4) (* 0 x5) (* 0 x6) (* 0 x7) ) 630))
(assert (<= (+ (* 0 x1) (* 1 x2) (* 0 x3) (* 0 x4) (* 0 x5) (* 0 x6) (* 0 x7) ) 630))
(assert (<= (+ (* 0 x1) (* (- 1) x2) (* 0 x3) (* 0 x4) (* 0 x5) (* 0 x6) (* 0 x7) ) 630))
(assert (<= (+ (* 0 x1) (* 0 x2) (* 1 x3) (* 0 x4) (* 0 x5) (* 0 x6) (* 0 x7) ) 630))
(assert (<= (+ (* 0 x1) (* 0 x2) (* (- 1) x3) (* 0 x4) (* 0 x5) (* 0 x6) (* 0 x7) ) 630))
(assert (<= (+ (* 0 x1) (* 0 x2) (* 0 x3) (* 1 x4) (* 0 x5) (* 0 x6) (* 0 x7) ) 630))
(assert (<= (+ (* 0 x1) (* 0 x2) (* 0 x3) (* (- 1) x4) (* 0 x5) (* 0 x6) (* 0 x7) ) 630))
(assert (<= (+ (* 0 x1) (* 0 x2) (* 0 x3) (* 0 x4) (* 1 x5) (* 0 x6) (* 0 x7) ) 630))
(assert (<= (+ (* 0 x1) (* 0 x2) (* 0 x3) (* 0 x4) (* (- 1) x5) (* 0 x6) (* 0 x7) ) 630))
(assert (<= (+ (* 0 x1) (* 0 x2) (* 0 x3) (* 0 x4) (* 0 x5) (* 1 x6) (* 0 x7) ) 630))
(assert (<= (+ (* 0 x1) (* 0 x2) (* 0 x3) (* 0 x4) (* 0 x5) (* (- 1) x6) (* 0 x7) ) 630))
(assert (<= (+ (* 0 x1) (* 0 x2) (* 0 x3) (* 0 x4) (* 0 x5) (* 0 x6) (* 1 x7) ) 630))
(assert (<= (+ (* 0 x1) (* 0 x2) (* 0 x3) (* 0 x4) (* 0 x5) (* 0 x6) (* (- 1) x7) ) 630))
