mixintcount/benchmarks/random_v2l/7_7_630.in
28 9
#	x1	x2	x3	x4	x5	x6	x7;		0 = Real; 1 = Integer
	1	1	1	1	1	1	1
1	-5	7	1	6	9	-10	-6	-219
1	-5	0	3	-7	-10	9	-8	158
1	-8	-4	5	-2	2	2	0	-424
1	5	10	-4	-9	-8	-2	-8	393
1	-6	2	-10	-8	2	-5	-6	-15
1	5	7	8	6	5	10	3	-571
1	-5	-5	-8	5	5	0	-2	-95
1	-1	4	-1	1	-9	-1	7	-332
1	9	7	-4	0	-9	0	-5	-38
1	-6	-8	-2	9	-10	-10	3	429
1	-7	3	7	9	-7	-6	-5	62
1	9	2	10	10	-9	6	-7	339
1	2	-2	-2	2	6	3	-4	-620
1	3	2	7	1	0	-2	3	-105
1	1	0	0	0	0	0	0	630
1	-1	0	0	0	0	0	0	630
1	0	1	0	0	0	0	0	630
1	0	-1	0	0	0	0	0	630
1	0	0	1	0	0	0	0	630
1	0	0	-1	0	0	0	0	630
1	0	0	0	1	0	0	0	630
1	0	0	0	-1	0	0	0	630
1	0	0	0	0	1	0	0	630
1	0	0	0	0	-1	0	0	630
1	0	0	0	0	0	1	0	630
1	0	0	0	0	0	-1	0	630
1	0	0	0	0	0	0	1	630
1	0	0	0	0	0	0	-1	630
